
n_res = 6;
rcap = [22, 21, 20, 19, 828, 823];
rtype = [1, 1, 1, 1, 2, 2];
n_tasks = 50;
modes =  [{1, 2, 3}, {4, 5, 6}, {7, 8, 9}, {10, 11, 12}, {13, 14, 15}, {16, 17, 18}, {19, 20, 21}, {22, 23, 24}, {25, 26, 27}, {28, 29, 30}, {31, 32, 33}, {34, 35, 36}, {37, 38, 39}, {40, 41, 42}, {43, 44, 45}, {46, 47, 48}, {49, 50, 51}, {52, 53, 54}, {55, 56, 57}, {58, 59, 60}, {61, 62, 63}, {64, 65, 66}, {67, 68, 69}, {70, 71, 72}, {73, 74, 75}, {76, 77, 78}, {79, 80, 81}, {82, 83, 84}, {85, 86, 87}, {88, 89, 90}, {91, 92, 93}, {94, 95, 96}, {97, 98, 99}, {100, 101, 102}, {103, 104, 105}, {106, 107, 108}, {109, 110, 111}, {112, 113, 114}, {115, 116, 117}, {118, 119, 120}, {121, 122, 123}, {124, 125, 126}, {127, 128, 129}, {130, 131, 132}, {133, 134, 135}, {136, 137, 138}, {139, 140, 141}, {142, 143, 144}, {145, 146, 147}, {148, 149, 150}];
succ =  [{14, 9, 8, 6, 2}, {20, 18, 16, 12, 7}, {20, 16, 15, 9}, {20, 18, 16, 15, 13}, {20, 18, 15, 13}, {23, 18, 16, 13}, {13, 10}, {20, 10}, {23, 18, 13}, {19, 17, 15}, {23, 20, 17}, {25, 23, 22, 19}, {19, 17}, {20, 19}, {26, 25, 23, 21}, {26, 25, 22, 21}, {29, 26, 25, 24, 22}, {26, 25, 21}, {26, 21}, {22, 21}, {29, 24}, {40, 36, 33, 32, 30, 28, 27}, {40, 39, 36, 32, 30, 29, 27}, {40, 36, 32, 30, 28, 27}, {40, 34, 32, 30, 28}, {33, 32, 30, 28}, {34, 31}, {44, 41, 39, 38, 35}, {41, 35, 33}, {44, 41, 38, 35}, {45, 41, 38, 35}, {44, 42, 35}, {48, 43, 34}, {50, 49, 45, 44, 42}, {50, 37}, {49, 48, 47, 43}, {49, 48, 43}, {48, 47, 42}, {48, 47, 45}, {48, 47, 46}, {47, 42}, {46}, {46}, {47}, {46}, {}, {}, {}, {}, {}];
n_opt = 150;
dur = [11, 27, 30, 14, 17, 29, 14, 16, 17, 15, 16, 26, 11, 15, 24, 9, 22, 26, 8, 23, 26, 15, 21, 24, 6, 16, 28, 5, 10, 12, 6, 11, 26, 13, 25, 26, 3, 16, 20, 25, 28, 30, 16, 17, 18, 4, 23, 25, 10, 11, 12, 1, 8, 12, 1, 6, 12, 3, 17, 19, 14, 17, 23, 12, 16, 30, 4, 18, 22, 1, 19, 30, 2, 8, 26, 10, 14, 24, 3, 10, 29, 1, 18, 27, 9, 10, 23, 10, 21, 30, 6, 13, 18, 2, 3, 17, 2, 15, 17, 1, 5, 15, 21, 22, 24, 12, 19, 28, 3, 13, 16, 6, 14, 29, 7, 16, 30, 4, 9, 13, 20, 24, 28, 17, 20, 24, 6, 15, 30, 4, 17, 18, 15, 17, 28, 6, 12, 19, 13, 14, 19, 19, 20, 25, 1, 17, 25, 4, 19, 29];
rreq = [|5, 3, 2, 4, 4, 3, 4, 4, 4, 5, 3, 3, 1, 1, 1, 4, 4, 4, 4, 4, 4, 3, 3, 3, 1, 1, 1, 3, 2, 2, 2, 2, 1, 4, 2, 1, 2, 2, 2, 4, 3, 1, 2, 2, 2, 4, 3, 3, 4, 4, 4, 4, 3, 3, 4, 3, 3, 1, 1, 1, 4, 4, 4, 3, 3, 3, 4, 3, 3, 4, 3, 1, 2, 2, 2, 4, 2, 2, 5, 4, 3, 3, 1, 1, 1, 1, 1, 4, 3, 3, 3, 2, 2, 5, 4, 4, 4, 4, 3, 4, 4, 3, 4, 3, 2, 1, 1, 1, 1, 1, 1, 3, 2, 1, 3, 3, 2, 3, 2, 2, 2, 2, 2, 5, 5, 5, 4, 4, 4, 3, 2, 2, 1, 1, 1, 3, 3, 2, 5, 5, 5, 4, 4, 2, 5, 5, 5, 5, 3, 3
 |3, 3, 3, 2, 1, 1, 4, 3, 3, 3, 3, 3, 4, 2, 2, 2, 1, 1, 4, 3, 2, 4, 2, 2, 2, 2, 2, 3, 3, 3, 4, 4, 4, 5, 3, 3, 4, 4, 4, 2, 2, 2, 4, 4, 2, 5, 3, 1, 3, 3, 2, 1, 1, 1, 2, 1, 1, 5, 3, 2, 4, 2, 1, 3, 1, 1, 3, 3, 3, 2, 2, 2, 2, 1, 1, 5, 3, 3, 5, 4, 4, 4, 4, 4, 5, 3, 2, 2, 1, 1, 3, 1, 1, 4, 2, 2, 2, 2, 2, 2, 2, 2, 2, 2, 2, 2, 2, 2, 4, 3, 2, 3, 3, 3, 2, 1, 1, 5, 4, 3, 4, 3, 2, 2, 2, 2, 4, 4, 2, 4, 4, 4, 2, 2, 2, 4, 3, 2, 3, 3, 3, 5, 4, 3, 2, 2, 2, 3, 3, 3
 |3, 3, 2, 3, 3, 3, 3, 3, 3, 1, 1, 1, 4, 4, 4, 3, 3, 2, 3, 3, 1, 3, 3, 2, 3, 2, 2, 5, 5, 5, 2, 1, 1, 5, 4, 2, 3, 3, 2, 4, 4, 4, 2, 2, 2, 4, 3, 1, 4, 4, 4, 4, 2, 2, 4, 3, 2, 3, 2, 2, 4, 2, 1, 2, 2, 2, 4, 3, 3, 3, 2, 1, 3, 2, 2, 4, 2, 1, 1, 1, 1, 5, 3, 2, 4, 4, 4, 3, 2, 1, 4, 3, 2, 5, 4, 4, 5, 4, 2, 1, 1, 1, 4, 3, 1, 4, 4, 4, 5, 4, 4, 3, 3, 1, 3, 2, 2, 4, 2, 2, 5, 5, 5, 4, 4, 3, 4, 4, 4, 3, 2, 2, 3, 3, 3, 3, 3, 3, 3, 1, 1, 3, 2, 2, 2, 2, 1, 2, 2, 1
 |4, 4, 4, 1, 1, 1, 4, 4, 4, 4, 4, 4, 4, 4, 4, 2, 1, 1, 5, 4, 4, 3, 2, 2, 4, 4, 4, 2, 1, 1, 4, 4, 4, 2, 2, 2, 2, 2, 2, 2, 1, 1, 5, 5, 5, 3, 3, 3, 2, 2, 1, 4, 2, 2, 4, 3, 2, 1, 1, 1, 1, 1, 1, 5, 4, 4, 4, 3, 3, 4, 3, 1, 3, 1, 1, 5, 4, 4, 3, 3, 1, 2, 2, 2, 2, 2, 2, 4, 2, 2, 2, 2, 2, 3, 2, 1, 4, 4, 4, 4, 3, 1, 4, 3, 3, 5, 4, 2, 3, 1, 1, 5, 5, 5, 3, 3, 2, 1, 1, 1, 4, 3, 2, 3, 3, 3, 3, 3, 3, 3, 3, 3, 3, 3, 3, 3, 3, 3, 5, 3, 3, 4, 3, 2, 2, 1, 1, 4, 3, 2
 |2, 1, 1, 19, 19, 19, 21, 15, 2, 25, 21, 14, 18, 17, 14, 18, 16, 10, 26, 26, 26, 20, 18, 13, 10, 9, 5, 27, 21, 18, 26, 22, 18, 15, 12, 6, 24, 23, 22, 25, 25, 25, 13, 13, 11, 12, 8, 5, 20, 18, 7, 24, 23, 21, 16, 12, 8, 21, 17, 16, 22, 15, 1, 26, 23, 21, 12, 12, 11, 21, 15, 4, 12, 10, 6, 6, 6, 5, 13, 13, 13, 28, 26, 25, 13, 9, 8, 20, 12, 11, 24, 16, 10, 16, 12, 8, 14, 13, 12, 23, 19, 14, 17, 12, 7, 13, 7, 7, 21, 21, 21, 18, 16, 16, 25, 22, 20, 5, 5, 5, 6, 4, 4, 27, 27, 23, 19, 12, 11, 19, 18, 17, 3, 2, 2, 10, 7, 5, 22, 14, 13, 30, 29, 29, 17, 12, 6, 19, 14, 8
 |17, 13, 12, 19, 16, 12, 20, 13, 12, 29, 25, 18, 8, 8, 6, 22, 12, 7, 16, 14, 14, 11, 9, 5, 13, 7, 3, 22, 20, 11, 3, 3, 3, 18, 11, 9, 28, 26, 26, 3, 3, 3, 20, 19, 16, 22, 20, 18, 22, 20, 20, 6, 5, 5, 14, 14, 12, 21, 18, 17, 25, 24, 23, 20, 17, 15, 21, 16, 14, 27, 21, 17, 25, 25, 23, 2, 1, 1, 27, 27, 27, 8, 8, 8, 25, 19, 16, 9, 8, 6, 17, 10, 5, 9, 8, 7, 22, 18, 10, 19, 15, 8, 15, 15, 13, 13, 8, 7, 13, 11, 10, 17, 8, 4, 23, 18, 11, 14, 13, 13, 14, 12, 9, 26, 25, 25, 24, 20, 14, 15, 8, 5, 23, 14, 7, 21, 18, 17, 19, 18, 14, 19, 18, 7, 27, 27, 27, 25, 13, 8|];